c FILE /home/rafael/Documents/HappySet/MIHS/inputs/happygen/output/graph_d_regular_k20_p0.3_v100_20241127_084131.txt
c SOURCE This is a d-regular graph formed for the happy graph colouring problem.
c DESCRIPTION It was generated using the problem generator of Rhyd Lewis
c
c GRAPH STATS
c Seed                             = 814574189
c Number of Nodes                  = 100
c Number of colours k              = 20
c Number of pre-assignments        = 30
c Degree of all vertices           = 6
c Density                          = 0.0606061
c 
c The degrees of nodes 1 to 100, respectively, are as follows 
c [6, 6, 6, 6, 6, 6, 6, 6, 6, 6, 6, 6, 6, 6, 6, 6, 6, 6, 6, 6, 6, 6, 6, 6, 6, 6, 
c  6, 6, 6, 6, 6, 6, 6, 6, 6, 6, 6, 6, 6, 6, 6, 6, 6, 6, 6, 6, 6, 6, 6, 6, 6, 
c  6, 6, 6, 6, 6, 6, 6, 6, 6, 6, 6, 6, 6, 6, 6, 6, 6, 6, 6, 6, 6, 6, 6, 6, 6, 
c  6, 6, 6, 6, 6, 6, 6, 6, 6, 6, 6, 6, 6, 6, 6, 6, 6, 6, 6, 6, 6, 6, 6, 6] 
c  
p edge 100 300 20
e 1 37
e 1 38
e 1 42
e 1 60
e 1 73
e 1 95
e 2 9
e 2 29
e 2 49
e 2 55
e 2 59
e 2 64
e 3 10
e 3 54
e 3 88
e 3 93
e 3 94
e 3 96
e 4 8
e 4 18
e 4 70
e 4 81
e 4 83
e 4 96
e 5 33
e 5 45
e 5 59
e 5 60
e 5 89
e 5 96
e 6 19
e 6 22
e 6 57
e 6 60
e 6 73
e 6 82
e 7 10
e 7 11
e 7 29
e 7 78
e 7 82
e 7 100
e 8 23
e 8 52
e 8 55
e 8 63
e 8 81
e 9 17
e 9 27
e 9 50
e 9 61
e 9 85
e 10 17
e 10 70
e 10 72
e 10 85
e 11 26
e 11 42
e 11 51
e 11 74
e 11 86
e 12 14
e 12 26
e 12 27
e 12 30
e 12 31
e 12 88
e 13 39
e 13 45
e 13 59
e 13 72
e 13 84
e 13 91
e 14 22
e 14 56
e 14 67
e 14 78
e 14 91
e 15 33
e 15 34
e 15 40
e 15 44
e 15 68
e 15 73
e 16 19
e 16 34
e 16 51
e 16 64
e 16 79
e 16 86
e 17 20
e 17 54
e 17 65
e 17 67
e 18 33
e 18 37
e 18 55
e 18 77
e 18 80
e 19 22
e 19 69
e 19 80
e 19 96
e 20 39
e 20 57
e 20 64
e 20 76
e 20 89
e 21 28
e 21 39
e 21 53
e 21 62
e 21 76
e 21 94
e 22 54
e 22 63
e 22 68
e 23 28
e 23 51
e 23 90
e 23 93
e 23 94
e 24 26
e 24 39
e 24 51
e 24 60
e 24 79
e 24 85
e 25 36
e 25 43
e 25 56
e 25 74
e 25 84
e 25 88
e 26 48
e 26 57
e 26 83
e 27 35
e 27 56
e 27 84
e 27 92
e 28 36
e 28 48
e 28 95
e 28 100
e 29 65
e 29 68
e 29 89
e 29 92
e 30 31
e 30 34
e 30 43
e 30 63
e 30 92
e 31 44
e 31 50
e 31 58
e 31 74
e 32 38
e 32 43
e 32 48
e 32 72
e 32 79
e 32 100
e 33 35
e 33 38
e 33 47
e 34 46
e 34 83
e 34 97
e 35 46
e 35 73
e 35 93
e 35 98
e 36 69
e 36 80
e 36 87
e 36 90
e 37 38
e 37 42
e 37 92
e 37 95
e 38 46
e 38 59
e 39 66
e 39 97
e 40 41
e 40 66
e 40 71
e 40 79
e 40 93
e 41 42
e 41 76
e 41 77
e 41 91
e 41 94
e 42 51
e 42 53
e 43 81
e 43 82
e 43 100
e 44 61
e 44 72
e 44 80
e 44 82
e 45 46
e 45 66
e 45 86
e 45 87
e 46 62
e 46 75
e 47 48
e 47 58
e 47 66
e 47 78
e 47 85
e 48 57
e 48 60
e 49 50
e 49 54
e 49 61
e 49 71
e 49 85
e 50 55
e 50 96
e 50 98
e 51 94
e 52 61
e 52 69
e 52 70
e 52 92
e 52 96
e 53 56
e 53 78
e 53 84
e 53 99
e 54 63
e 54 68
e 55 66
e 55 91
e 56 58
e 56 72
e 57 76
e 57 89
e 58 64
e 58 65
e 58 88
e 59 76
e 59 87
e 60 74
e 61 92
e 61 97
e 62 75
e 62 77
e 62 90
e 62 98
e 63 85
e 63 91
e 64 65
e 64 75
e 65 72
e 65 98
e 66 100
e 67 83
e 67 86
e 67 89
e 67 97
e 68 83
e 68 95
e 69 78
e 69 80
e 69 99
e 70 75
e 70 81
e 70 87
e 71 76
e 71 77
e 71 84
e 71 95
e 73 86
e 73 90
e 74 93
e 74 94
e 75 98
e 75 99
e 77 89
e 77 95
e 78 98
e 79 86
e 79 90
e 80 81
e 81 99
e 82 87
e 82 97
e 83 90
e 84 99
e 87 88
e 88 91
e 93 100
e 97 99
n 4 4
n 8 4
n 10 16
n 11 10
n 15 8
n 19 3
n 25 20
n 27 2
n 29 7
n 35 2
n 38 5
n 39 6
n 45 6
n 48 11
n 50 17
n 53 13
n 54 16
n 57 11
n 58 1
n 59 5
n 62 19
n 66 6
n 67 9
n 72 16
n 79 14
n 91 18
n 93 2
n 94 15
n 95 12
n 99 13
